200
120
100
100
98
97
97
96
96
96
96
93
93
92
90
90
89
89
89
89
89
88
88
87
86
86
86
85
85
85
85
83
82
81
81
81
80
80
79
79
78
77
77
76
76
76
75
75
75
74
74
73
73
72
72
72
72
72
71
70
70
70
70
70
69
69
68
68
67
66
66
65
65
63
63
63
62
62
62
62
60
60
59
59
58
58
58
57
57
57
55
55
54
54
53
53
53
52
52
51
51
51
50
50
49
48
48
47
47
47
46
44
43
43
43
42
42
41
40
40
40
40
39
39
39
39
39
38
37
36
36
36
35
35
34
34
34
34
33
33
33
33
32
32
32
32
31
30
29
29
29
29
28
27
26
25
24
23
23
22
22
20
20
20
19
19
19
18
18
17
17
17
16
16
15
15
15
13
13
13
13
13
12
12
10
10
9
9
9
8
8
7
7
7
5
4
4
3
3
1
1
1
